param n:=5;
param m:=5;

param f:=
		1 1000
		2 1000
		3 1000
		4 1000
		5 1000;


param C:=
		1	80
		2	270
		3	250
		4	160
		5	180;
param A:
		1	2	3	4	5:=
	1	81	92	101	130	115
	2	117	77	108	98	100
	3	102	105	95	119	111
	4	115	125	90	59	74
	5	142	100	103	105	71;
param B :=
	1	450
	2	325
	3	500
	4	305
	5	300;
	